(set-info :Origin "This instance was generated by: BanditFuzz-- an RL fuzzer for SMT solvers" )
(set-info :Author "Joe Scott, Fed Mora, Vijay Ganesh" )
(set-info :Contact "Joe Scott, joseph.scott@uwaterloo.ca")
(set-logic QF_BV)
(declare-const bool_0 Bool)
(declare-const bool_1 Bool)
(declare-const bool_2 Bool)
(declare-const bool_3 Bool)
(declare-const bool_4 Bool)
(declare-const bv_0 (_ BitVec 32))
(declare-const bv_1 (_ BitVec 32))
(declare-const bv_2 (_ BitVec 32))
(declare-const bv_3 (_ BitVec 32))
(declare-const bv_4 (_ BitVec 32))
(assert (bvult (bvashr (bvsub #x107adaef  #x85c193dc ) (bvudiv bv_1 bv_2)) (bvurem (bvsrem #xcf7a5283  #x74db9c9a ) (bvadd bv_1 bv_3))))
(assert (bvsgt (bvudiv (bvor bv_4 #xb087d69f ) (bvsdiv #x8387f677  bv_4)) (bvsdiv (bvand bv_0 bv_2) (bvand #x8da28089  #xbc3239f4 ))))
(assert (bvsgt (bvsrem (bvadd #xaa9b49c5  bv_2) (bvsub bv_0 bv_3)) (bvsdiv (bvshl #x7f5e82cd  bv_0) (bvxnor #x83f9c995  #x5c536c7f ))))
(assert (and (bvsge (bvand bv_4 #x2a00ed3a ) (bvxor bv_4 #x258c36e7 )) (bvult (bvxnor #x247cf73b  #x26bcb76c ) (bvsub #x4286ea5d  #x5507c2b7 ))))
(assert (bvslt (bvmul (bvsmod #x2d4269a6  #xd45f9462 ) (bvor bv_2 bv_0)) (bvmul (bvsrem #x4ebf9878  bv_2) (bvnor #xb3de44e3  #x328688ed ))))
(check-sat)
(exit)
